c not original file ! May have been modified for weighted vertex coloring problem (edges and vertices stay the same only weights may have been moved to an other file)
p edge 259 3019
e 1 2
e 1 3
e 1 4
e 1 5
e 1 6
e 1 7
e 1 8
e 1 9
e 1 10
e 1 11
e 1 12
e 1 13
e 1 24
e 1 54
e 1 79
e 1 91
e 1 140
e 1 153
e 1 166
e 1 180
e 1 194
e 1 205
e 1 232
e 1 245
e 2 3
e 2 4
e 2 5
e 2 6
e 2 7
e 2 8
e 2 9
e 2 10
e 2 11
e 2 12
e 2 13
e 2 25
e 2 65
e 2 92
e 2 115
e 2 128
e 2 141
e 2 154
e 2 167
e 2 195
e 2 206
e 2 218
e 2 246
e 3 4
e 3 5
e 3 6
e 3 7
e 3 8
e 3 9
e 3 10
e 3 11
e 3 12
e 3 13
e 3 14
e 3 26
e 3 46
e 3 66
e 3 80
e 3 93
e 3 105
e 3 142
e 3 155
e 3 168
e 3 181
e 3 207
e 3 219
e 3 233
e 3 247
e 4 5
e 4 6
e 4 7
e 4 8
e 4 9
e 4 10
e 4 11
e 4 12
e 4 13
e 4 16
e 4 28
e 4 39
e 4 56
e 4 95
e 4 130
e 4 197
e 4 209
e 4 250
e 5 6
e 5 7
e 5 8
e 5 9
e 5 10
e 5 11
e 5 12
e 5 13
e 5 17
e 5 29
e 5 69
e 5 117
e 5 131
e 5 157
e 5 169
e 5 210
e 5 222
e 5 235
e 5 251
e 6 7
e 6 8
e 6 9
e 6 10
e 6 11
e 6 12
e 6 13
e 6 18
e 6 30
e 6 48
e 6 70
e 6 81
e 6 132
e 6 158
e 6 170
e 6 184
e 6 198
e 6 223
e 6 236
e 6 252
e 7 8
e 7 9
e 7 10
e 7 11
e 7 12
e 7 13
e 7 31
e 7 57
e 7 71
e 7 96
e 7 107
e 7 118
e 7 144
e 7 224
e 7 253
e 8 9
e 8 10
e 8 11
e 8 12
e 8 13
e 8 19
e 8 32
e 8 40
e 8 72
e 8 82
e 8 97
e 8 108
e 8 145
e 8 171
e 8 185
e 8 225
e 9 10
e 9 11
e 9 12
e 9 13
e 9 34
e 9 41
e 9 58
e 9 73
e 9 84
e 9 109
e 9 120
e 9 146
e 9 159
e 9 173
e 9 199
e 9 211
e 9 226
e 9 238
e 9 254
e 10 11
e 10 12
e 10 13
e 10 21
e 10 50
e 10 59
e 10 85
e 10 110
e 10 121
e 10 160
e 10 174
e 10 187
e 10 200
e 10 212
e 10 255
e 11 12
e 11 13
e 11 60
e 11 100
e 11 124
e 11 136
e 11 149
e 11 162
e 11 190
e 11 258
e 12 13
e 12 43
e 12 52
e 12 61
e 12 76
e 12 89
e 12 101
e 12 112
e 12 125
e 12 137
e 12 150
e 12 177
e 12 203
e 12 229
e 12 241
e 12 259
e 13 36
e 13 44
e 13 62
e 13 77
e 13 102
e 13 113
e 13 138
e 13 151
e 13 163
e 13 178
e 13 191
e 13 215
e 13 242
e 14 15
e 14 16
e 14 17
e 14 18
e 14 19
e 14 20
e 14 21
e 14 22
e 14 23
e 14 26
e 14 46
e 14 66
e 14 80
e 14 93
e 14 105
e 14 142
e 14 155
e 14 168
e 14 181
e 14 207
e 14 219
e 14 233
e 14 247
e 15 16
e 15 17
e 15 18
e 15 19
e 15 20
e 15 21
e 15 22
e 15 23
e 15 37
e 15 55
e 15 67
e 15 94
e 15 116
e 15 129
e 15 182
e 15 208
e 15 220
e 15 234
e 15 248
e 16 17
e 16 18
e 16 19
e 16 20
e 16 21
e 16 22
e 16 23
e 16 28
e 16 39
e 16 56
e 16 95
e 16 130
e 16 197
e 16 209
e 16 250
e 17 18
e 17 19
e 17 20
e 17 21
e 17 22
e 17 23
e 17 29
e 17 69
e 17 117
e 17 131
e 17 157
e 17 169
e 17 210
e 17 222
e 17 235
e 17 251
e 18 19
e 18 20
e 18 21
e 18 22
e 18 23
e 18 30
e 18 48
e 18 70
e 18 81
e 18 132
e 18 158
e 18 170
e 18 184
e 18 198
e 18 223
e 18 236
e 18 252
e 19 20
e 19 21
e 19 22
e 19 23
e 19 32
e 19 40
e 19 72
e 19 82
e 19 97
e 19 108
e 19 145
e 19 171
e 19 185
e 19 225
e 20 21
e 20 22
e 20 23
e 20 33
e 20 49
e 20 83
e 20 98
e 20 119
e 20 133
e 20 172
e 20 186
e 20 237
e 21 22
e 21 23
e 21 50
e 21 59
e 21 85
e 21 110
e 21 121
e 21 160
e 21 174
e 21 187
e 21 200
e 21 212
e 21 255
e 22 23
e 22 87
e 22 99
e 22 135
e 22 161
e 22 176
e 22 202
e 22 213
e 22 228
e 22 240
e 22 257
e 23 35
e 23 51
e 23 75
e 23 88
e 23 111
e 23 123
e 23 148
e 23 189
e 23 214
e 24 25
e 24 26
e 24 27
e 24 28
e 24 29
e 24 30
e 24 31
e 24 32
e 24 33
e 24 34
e 24 35
e 24 36
e 24 54
e 24 79
e 24 91
e 24 140
e 24 153
e 24 166
e 24 180
e 24 194
e 24 205
e 24 232
e 24 245
e 25 26
e 25 27
e 25 28
e 25 29
e 25 30
e 25 31
e 25 32
e 25 33
e 25 34
e 25 35
e 25 36
e 25 65
e 25 92
e 25 115
e 25 128
e 25 141
e 25 154
e 25 167
e 25 195
e 25 206
e 25 218
e 25 246
e 26 27
e 26 28
e 26 29
e 26 30
e 26 31
e 26 32
e 26 33
e 26 34
e 26 35
e 26 36
e 26 46
e 26 66
e 26 80
e 26 93
e 26 105
e 26 142
e 26 155
e 26 168
e 26 181
e 26 207
e 26 219
e 26 233
e 26 247
e 27 28
e 27 29
e 27 30
e 27 31
e 27 32
e 27 33
e 27 34
e 27 35
e 27 36
e 27 38
e 27 47
e 27 68
e 27 106
e 27 143
e 27 156
e 27 183
e 27 196
e 27 221
e 27 249
e 28 29
e 28 30
e 28 31
e 28 32
e 28 33
e 28 34
e 28 35
e 28 36
e 28 39
e 28 56
e 28 95
e 28 130
e 28 197
e 28 209
e 28 250
e 29 30
e 29 31
e 29 32
e 29 33
e 29 34
e 29 35
e 29 36
e 29 69
e 29 117
e 29 131
e 29 157
e 29 169
e 29 210
e 29 222
e 29 235
e 29 251
e 30 31
e 30 32
e 30 33
e 30 34
e 30 35
e 30 36
e 30 48
e 30 70
e 30 81
e 30 132
e 30 158
e 30 170
e 30 184
e 30 198
e 30 223
e 30 236
e 30 252
e 31 32
e 31 33
e 31 34
e 31 35
e 31 36
e 31 57
e 31 71
e 31 96
e 31 107
e 31 118
e 31 144
e 31 224
e 31 253
e 32 33
e 32 34
e 32 35
e 32 36
e 32 40
e 32 72
e 32 82
e 32 97
e 32 108
e 32 145
e 32 171
e 32 185
e 32 225
e 33 34
e 33 35
e 33 36
e 33 49
e 33 83
e 33 98
e 33 119
e 33 133
e 33 172
e 33 186
e 33 237
e 34 35
e 34 36
e 34 41
e 34 58
e 34 73
e 34 84
e 34 109
e 34 120
e 34 146
e 34 159
e 34 173
e 34 199
e 34 211
e 34 226
e 34 238
e 34 254
e 35 36
e 35 51
e 35 75
e 35 88
e 35 111
e 35 123
e 35 148
e 35 189
e 35 214
e 36 44
e 36 62
e 36 77
e 36 102
e 36 113
e 36 138
e 36 151
e 36 163
e 36 178
e 36 191
e 36 215
e 36 242
e 37 38
e 37 39
e 37 40
e 37 41
e 37 42
e 37 43
e 37 44
e 37 45
e 37 55
e 37 67
e 37 94
e 37 116
e 37 129
e 37 182
e 37 208
e 37 220
e 37 234
e 37 248
e 38 39
e 38 40
e 38 41
e 38 42
e 38 43
e 38 44
e 38 45
e 38 47
e 38 68
e 38 106
e 38 143
e 38 156
e 38 183
e 38 196
e 38 221
e 38 249
e 39 40
e 39 41
e 39 42
e 39 43
e 39 44
e 39 45
e 39 56
e 39 95
e 39 130
e 39 197
e 39 209
e 39 250
e 40 41
e 40 42
e 40 43
e 40 44
e 40 45
e 40 72
e 40 82
e 40 97
e 40 108
e 40 145
e 40 171
e 40 185
e 40 225
e 41 42
e 41 43
e 41 44
e 41 45
e 41 58
e 41 73
e 41 84
e 41 109
e 41 120
e 41 146
e 41 159
e 41 173
e 41 199
e 41 211
e 41 226
e 41 238
e 41 254
e 42 43
e 42 44
e 42 45
e 42 74
e 42 86
e 42 122
e 42 134
e 42 147
e 42 175
e 42 188
e 42 201
e 42 227
e 42 239
e 42 256
e 43 44
e 43 45
e 43 52
e 43 61
e 43 76
e 43 89
e 43 101
e 43 112
e 43 125
e 43 137
e 43 150
e 43 177
e 43 203
e 43 229
e 43 241
e 43 259
e 44 45
e 44 62
e 44 77
e 44 102
e 44 113
e 44 138
e 44 151
e 44 163
e 44 178
e 44 191
e 44 215
e 44 242
e 45 63
e 45 90
e 45 103
e 45 126
e 45 152
e 45 164
e 45 192
e 45 204
e 45 216
e 45 230
e 45 243
e 46 47
e 46 48
e 46 49
e 46 50
e 46 51
e 46 52
e 46 66
e 46 80
e 46 93
e 46 105
e 46 142
e 46 155
e 46 168
e 46 181
e 46 207
e 46 219
e 46 233
e 46 247
e 47 48
e 47 49
e 47 50
e 47 51
e 47 52
e 47 68
e 47 106
e 47 143
e 47 156
e 47 183
e 47 196
e 47 221
e 47 249
e 48 49
e 48 50
e 48 51
e 48 52
e 48 70
e 48 81
e 48 132
e 48 158
e 48 170
e 48 184
e 48 198
e 48 223
e 48 236
e 48 252
e 49 50
e 49 51
e 49 52
e 49 83
e 49 98
e 49 119
e 49 133
e 49 172
e 49 186
e 49 237
e 50 51
e 50 52
e 50 59
e 50 85
e 50 110
e 50 121
e 50 160
e 50 174
e 50 187
e 50 200
e 50 212
e 50 255
e 51 52
e 51 75
e 51 88
e 51 111
e 51 123
e 51 148
e 51 189
e 51 214
e 52 61
e 52 76
e 52 89
e 52 101
e 52 112
e 52 125
e 52 137
e 52 150
e 52 177
e 52 203
e 52 229
e 52 241
e 52 259
e 53 54
e 53 55
e 53 56
e 53 57
e 53 58
e 53 59
e 53 60
e 53 61
e 53 62
e 53 63
e 53 64
e 53 78
e 53 104
e 53 114
e 53 127
e 53 139
e 53 165
e 53 179
e 53 193
e 53 217
e 53 231
e 53 244
e 54 55
e 54 56
e 54 57
e 54 58
e 54 59
e 54 60
e 54 61
e 54 62
e 54 63
e 54 79
e 54 91
e 54 140
e 54 153
e 54 166
e 54 180
e 54 194
e 54 205
e 54 232
e 54 245
e 55 56
e 55 57
e 55 58
e 55 59
e 55 60
e 55 61
e 55 62
e 55 63
e 55 67
e 55 94
e 55 116
e 55 129
e 55 182
e 55 208
e 55 220
e 55 234
e 55 248
e 56 57
e 56 58
e 56 59
e 56 60
e 56 61
e 56 62
e 56 63
e 56 95
e 56 130
e 56 197
e 56 209
e 56 250
e 57 58
e 57 59
e 57 60
e 57 61
e 57 62
e 57 63
e 57 71
e 57 96
e 57 107
e 57 118
e 57 144
e 57 224
e 57 253
e 58 59
e 58 60
e 58 61
e 58 62
e 58 63
e 58 73
e 58 84
e 58 109
e 58 120
e 58 146
e 58 159
e 58 173
e 58 199
e 58 211
e 58 226
e 58 238
e 58 254
e 59 60
e 59 61
e 59 62
e 59 63
e 59 85
e 59 110
e 59 121
e 59 160
e 59 174
e 59 187
e 59 200
e 59 212
e 59 255
e 60 61
e 60 62
e 60 63
e 60 100
e 60 124
e 60 136
e 60 149
e 60 162
e 60 190
e 60 258
e 61 62
e 61 63
e 61 76
e 61 89
e 61 101
e 61 112
e 61 125
e 61 137
e 61 150
e 61 177
e 61 203
e 61 229
e 61 241
e 61 259
e 62 63
e 62 77
e 62 102
e 62 113
e 62 138
e 62 151
e 62 163
e 62 178
e 62 191
e 62 215
e 62 242
e 63 90
e 63 103
e 63 126
e 63 152
e 63 164
e 63 192
e 63 204
e 63 216
e 63 230
e 63 243
e 64 65
e 64 66
e 64 67
e 64 68
e 64 69
e 64 70
e 64 71
e 64 72
e 64 73
e 64 74
e 64 75
e 64 76
e 64 77
e 64 78
e 64 104
e 64 114
e 64 127
e 64 139
e 64 165
e 64 179
e 64 193
e 64 217
e 64 231
e 64 244
e 65 66
e 65 67
e 65 68
e 65 69
e 65 70
e 65 71
e 65 72
e 65 73
e 65 74
e 65 75
e 65 76
e 65 77
e 65 92
e 65 115
e 65 128
e 65 141
e 65 154
e 65 167
e 65 195
e 65 206
e 65 218
e 65 246
e 66 67
e 66 68
e 66 69
e 66 70
e 66 71
e 66 72
e 66 73
e 66 74
e 66 75
e 66 76
e 66 77
e 66 80
e 66 93
e 66 105
e 66 142
e 66 155
e 66 168
e 66 181
e 66 207
e 66 219
e 66 233
e 66 247
e 67 68
e 67 69
e 67 70
e 67 71
e 67 72
e 67 73
e 67 74
e 67 75
e 67 76
e 67 77
e 67 94
e 67 116
e 67 129
e 67 182
e 67 208
e 67 220
e 67 234
e 67 248
e 68 69
e 68 70
e 68 71
e 68 72
e 68 73
e 68 74
e 68 75
e 68 76
e 68 77
e 68 106
e 68 143
e 68 156
e 68 183
e 68 196
e 68 221
e 68 249
e 69 70
e 69 71
e 69 72
e 69 73
e 69 74
e 69 75
e 69 76
e 69 77
e 69 117
e 69 131
e 69 157
e 69 169
e 69 210
e 69 222
e 69 235
e 69 251
e 70 71
e 70 72
e 70 73
e 70 74
e 70 75
e 70 76
e 70 77
e 70 81
e 70 132
e 70 158
e 70 170
e 70 184
e 70 198
e 70 223
e 70 236
e 70 252
e 71 72
e 71 73
e 71 74
e 71 75
e 71 76
e 71 77
e 71 96
e 71 107
e 71 118
e 71 144
e 71 224
e 71 253
e 72 73
e 72 74
e 72 75
e 72 76
e 72 77
e 72 82
e 72 97
e 72 108
e 72 145
e 72 171
e 72 185
e 72 225
e 73 74
e 73 75
e 73 76
e 73 77
e 73 84
e 73 109
e 73 120
e 73 146
e 73 159
e 73 173
e 73 199
e 73 211
e 73 226
e 73 238
e 73 254
e 74 75
e 74 76
e 74 77
e 74 86
e 74 122
e 74 134
e 74 147
e 74 175
e 74 188
e 74 201
e 74 227
e 74 239
e 74 256
e 75 76
e 75 77
e 75 88
e 75 111
e 75 123
e 75 148
e 75 189
e 75 214
e 76 77
e 76 89
e 76 101
e 76 112
e 76 125
e 76 137
e 76 150
e 76 177
e 76 203
e 76 229
e 76 241
e 76 259
e 77 102
e 77 113
e 77 138
e 77 151
e 77 163
e 77 178
e 77 191
e 77 215
e 77 242
e 78 79
e 78 80
e 78 81
e 78 82
e 78 83
e 78 84
e 78 85
e 78 86
e 78 87
e 78 88
e 78 89
e 78 90
e 78 104
e 78 114
e 78 127
e 78 139
e 78 165
e 78 179
e 78 193
e 78 217
e 78 231
e 78 244
e 79 80
e 79 81
e 79 82
e 79 83
e 79 84
e 79 85
e 79 86
e 79 87
e 79 88
e 79 89
e 79 90
e 79 91
e 79 140
e 79 153
e 79 166
e 79 180
e 79 194
e 79 205
e 79 232
e 79 245
e 80 81
e 80 82
e 80 83
e 80 84
e 80 85
e 80 86
e 80 87
e 80 88
e 80 89
e 80 90
e 80 93
e 80 105
e 80 142
e 80 155
e 80 168
e 80 181
e 80 207
e 80 219
e 80 233
e 80 247
e 81 82
e 81 83
e 81 84
e 81 85
e 81 86
e 81 87
e 81 88
e 81 89
e 81 90
e 81 132
e 81 158
e 81 170
e 81 184
e 81 198
e 81 223
e 81 236
e 81 252
e 82 83
e 82 84
e 82 85
e 82 86
e 82 87
e 82 88
e 82 89
e 82 90
e 82 97
e 82 108
e 82 145
e 82 171
e 82 185
e 82 225
e 83 84
e 83 85
e 83 86
e 83 87
e 83 88
e 83 89
e 83 90
e 83 98
e 83 119
e 83 133
e 83 172
e 83 186
e 83 237
e 84 85
e 84 86
e 84 87
e 84 88
e 84 89
e 84 90
e 84 109
e 84 120
e 84 146
e 84 159
e 84 173
e 84 199
e 84 211
e 84 226
e 84 238
e 84 254
e 85 86
e 85 87
e 85 88
e 85 89
e 85 90
e 85 110
e 85 121
e 85 160
e 85 174
e 85 187
e 85 200
e 85 212
e 85 255
e 86 87
e 86 88
e 86 89
e 86 90
e 86 122
e 86 134
e 86 147
e 86 175
e 86 188
e 86 201
e 86 227
e 86 239
e 86 256
e 87 88
e 87 89
e 87 90
e 87 99
e 87 135
e 87 161
e 87 176
e 87 202
e 87 213
e 87 228
e 87 240
e 87 257
e 88 89
e 88 90
e 88 111
e 88 123
e 88 148
e 88 189
e 88 214
e 89 90
e 89 101
e 89 112
e 89 125
e 89 137
e 89 150
e 89 177
e 89 203
e 89 229
e 89 241
e 89 259
e 90 103
e 90 126
e 90 152
e 90 164
e 90 192
e 90 204
e 90 216
e 90 230
e 90 243
e 91 92
e 91 93
e 91 94
e 91 95
e 91 96
e 91 97
e 91 98
e 91 99
e 91 100
e 91 101
e 91 102
e 91 103
e 91 140
e 91 153
e 91 166
e 91 180
e 91 194
e 91 205
e 91 232
e 91 245
e 92 93
e 92 94
e 92 95
e 92 96
e 92 97
e 92 98
e 92 99
e 92 100
e 92 101
e 92 102
e 92 103
e 92 115
e 92 128
e 92 141
e 92 154
e 92 167
e 92 195
e 92 206
e 92 218
e 92 246
e 93 94
e 93 95
e 93 96
e 93 97
e 93 98
e 93 99
e 93 100
e 93 101
e 93 102
e 93 103
e 93 105
e 93 142
e 93 155
e 93 168
e 93 181
e 93 207
e 93 219
e 93 233
e 93 247
e 94 95
e 94 96
e 94 97
e 94 98
e 94 99
e 94 100
e 94 101
e 94 102
e 94 103
e 94 116
e 94 129
e 94 182
e 94 208
e 94 220
e 94 234
e 94 248
e 95 96
e 95 97
e 95 98
e 95 99
e 95 100
e 95 101
e 95 102
e 95 103
e 95 130
e 95 197
e 95 209
e 95 250
e 96 97
e 96 98
e 96 99
e 96 100
e 96 101
e 96 102
e 96 103
e 96 107
e 96 118
e 96 144
e 96 224
e 96 253
e 97 98
e 97 99
e 97 100
e 97 101
e 97 102
e 97 103
e 97 108
e 97 145
e 97 171
e 97 185
e 97 225
e 98 99
e 98 100
e 98 101
e 98 102
e 98 103
e 98 119
e 98 133
e 98 172
e 98 186
e 98 237
e 99 100
e 99 101
e 99 102
e 99 103
e 99 135
e 99 161
e 99 176
e 99 202
e 99 213
e 99 228
e 99 240
e 99 257
e 100 101
e 100 102
e 100 103
e 100 124
e 100 136
e 100 149
e 100 162
e 100 190
e 100 258
e 101 102
e 101 103
e 101 112
e 101 125
e 101 137
e 101 150
e 101 177
e 101 203
e 101 229
e 101 241
e 101 259
e 102 103
e 102 113
e 102 138
e 102 151
e 102 163
e 102 178
e 102 191
e 102 215
e 102 242
e 103 126
e 103 152
e 103 164
e 103 192
e 103 204
e 103 216
e 103 230
e 103 243
e 104 105
e 104 106
e 104 107
e 104 108
e 104 109
e 104 110
e 104 111
e 104 112
e 104 113
e 104 114
e 104 127
e 104 139
e 104 165
e 104 179
e 104 193
e 104 217
e 104 231
e 104 244
e 105 106
e 105 107
e 105 108
e 105 109
e 105 110
e 105 111
e 105 112
e 105 113
e 105 142
e 105 155
e 105 168
e 105 181
e 105 207
e 105 219
e 105 233
e 105 247
e 106 107
e 106 108
e 106 109
e 106 110
e 106 111
e 106 112
e 106 113
e 106 143
e 106 156
e 106 183
e 106 196
e 106 221
e 106 249
e 107 108
e 107 109
e 107 110
e 107 111
e 107 112
e 107 113
e 107 118
e 107 144
e 107 224
e 107 253
e 108 109
e 108 110
e 108 111
e 108 112
e 108 113
e 108 145
e 108 171
e 108 185
e 108 225
e 109 110
e 109 111
e 109 112
e 109 113
e 109 120
e 109 146
e 109 159
e 109 173
e 109 199
e 109 211
e 109 226
e 109 238
e 109 254
e 110 111
e 110 112
e 110 113
e 110 121
e 110 160
e 110 174
e 110 187
e 110 200
e 110 212
e 110 255
e 111 112
e 111 113
e 111 123
e 111 148
e 111 189
e 111 214
e 112 113
e 112 125
e 112 137
e 112 150
e 112 177
e 112 203
e 112 229
e 112 241
e 112 259
e 113 138
e 113 151
e 113 163
e 113 178
e 113 191
e 113 215
e 113 242
e 114 115
e 114 116
e 114 117
e 114 118
e 114 119
e 114 120
e 114 121
e 114 122
e 114 123
e 114 124
e 114 125
e 114 126
e 114 127
e 114 139
e 114 165
e 114 179
e 114 193
e 114 217
e 114 231
e 114 244
e 115 116
e 115 117
e 115 118
e 115 119
e 115 120
e 115 121
e 115 122
e 115 123
e 115 124
e 115 125
e 115 126
e 115 128
e 115 141
e 115 154
e 115 167
e 115 195
e 115 206
e 115 218
e 115 246
e 116 117
e 116 118
e 116 119
e 116 120
e 116 121
e 116 122
e 116 123
e 116 124
e 116 125
e 116 126
e 116 129
e 116 182
e 116 208
e 116 220
e 116 234
e 116 248
e 117 118
e 117 119
e 117 120
e 117 121
e 117 122
e 117 123
e 117 124
e 117 125
e 117 126
e 117 131
e 117 157
e 117 169
e 117 210
e 117 222
e 117 235
e 117 251
e 118 119
e 118 120
e 118 121
e 118 122
e 118 123
e 118 124
e 118 125
e 118 126
e 118 144
e 118 224
e 118 253
e 119 120
e 119 121
e 119 122
e 119 123
e 119 124
e 119 125
e 119 126
e 119 133
e 119 172
e 119 186
e 119 237
e 120 121
e 120 122
e 120 123
e 120 124
e 120 125
e 120 126
e 120 146
e 120 159
e 120 173
e 120 199
e 120 211
e 120 226
e 120 238
e 120 254
e 121 122
e 121 123
e 121 124
e 121 125
e 121 126
e 121 160
e 121 174
e 121 187
e 121 200
e 121 212
e 121 255
e 122 123
e 122 124
e 122 125
e 122 126
e 122 134
e 122 147
e 122 175
e 122 188
e 122 201
e 122 227
e 122 239
e 122 256
e 123 124
e 123 125
e 123 126
e 123 148
e 123 189
e 123 214
e 124 125
e 124 126
e 124 136
e 124 149
e 124 162
e 124 190
e 124 258
e 125 126
e 125 137
e 125 150
e 125 177
e 125 203
e 125 229
e 125 241
e 125 259
e 126 152
e 126 164
e 126 192
e 126 204
e 126 216
e 126 230
e 126 243
e 127 128
e 127 129
e 127 130
e 127 131
e 127 132
e 127 133
e 127 134
e 127 135
e 127 136
e 127 137
e 127 138
e 127 139
e 127 165
e 127 179
e 127 193
e 127 217
e 127 231
e 127 244
e 128 129
e 128 130
e 128 131
e 128 132
e 128 133
e 128 134
e 128 135
e 128 136
e 128 137
e 128 138
e 128 141
e 128 154
e 128 167
e 128 195
e 128 206
e 128 218
e 128 246
e 129 130
e 129 131
e 129 132
e 129 133
e 129 134
e 129 135
e 129 136
e 129 137
e 129 138
e 129 182
e 129 208
e 129 220
e 129 234
e 129 248
e 130 131
e 130 132
e 130 133
e 130 134
e 130 135
e 130 136
e 130 137
e 130 138
e 130 197
e 130 209
e 130 250
e 131 132
e 131 133
e 131 134
e 131 135
e 131 136
e 131 137
e 131 138
e 131 157
e 131 169
e 131 210
e 131 222
e 131 235
e 131 251
e 132 133
e 132 134
e 132 135
e 132 136
e 132 137
e 132 138
e 132 158
e 132 170
e 132 184
e 132 198
e 132 223
e 132 236
e 132 252
e 133 134
e 133 135
e 133 136
e 133 137
e 133 138
e 133 172
e 133 186
e 133 237
e 134 135
e 134 136
e 134 137
e 134 138
e 134 147
e 134 175
e 134 188
e 134 201
e 134 227
e 134 239
e 134 256
e 135 136
e 135 137
e 135 138
e 135 161
e 135 176
e 135 202
e 135 213
e 135 228
e 135 240
e 135 257
e 136 137
e 136 138
e 136 149
e 136 162
e 136 190
e 136 258
e 137 138
e 137 150
e 137 177
e 137 203
e 137 229
e 137 241
e 137 259
e 138 151
e 138 163
e 138 178
e 138 191
e 138 215
e 138 242
e 139 140
e 139 141
e 139 142
e 139 143
e 139 144
e 139 145
e 139 146
e 139 147
e 139 148
e 139 149
e 139 150
e 139 151
e 139 152
e 139 165
e 139 179
e 139 193
e 139 217
e 139 231
e 139 244
e 140 141
e 140 142
e 140 143
e 140 144
e 140 145
e 140 146
e 140 147
e 140 148
e 140 149
e 140 150
e 140 151
e 140 152
e 140 153
e 140 166
e 140 180
e 140 194
e 140 205
e 140 232
e 140 245
e 141 142
e 141 143
e 141 144
e 141 145
e 141 146
e 141 147
e 141 148
e 141 149
e 141 150
e 141 151
e 141 152
e 141 154
e 141 167
e 141 195
e 141 206
e 141 218
e 141 246
e 142 143
e 142 144
e 142 145
e 142 146
e 142 147
e 142 148
e 142 149
e 142 150
e 142 151
e 142 152
e 142 155
e 142 168
e 142 181
e 142 207
e 142 219
e 142 233
e 142 247
e 143 144
e 143 145
e 143 146
e 143 147
e 143 148
e 143 149
e 143 150
e 143 151
e 143 152
e 143 156
e 143 183
e 143 196
e 143 221
e 143 249
e 144 145
e 144 146
e 144 147
e 144 148
e 144 149
e 144 150
e 144 151
e 144 152
e 144 224
e 144 253
e 145 146
e 145 147
e 145 148
e 145 149
e 145 150
e 145 151
e 145 152
e 145 171
e 145 185
e 145 225
e 146 147
e 146 148
e 146 149
e 146 150
e 146 151
e 146 152
e 146 159
e 146 173
e 146 199
e 146 211
e 146 226
e 146 238
e 146 254
e 147 148
e 147 149
e 147 150
e 147 151
e 147 152
e 147 175
e 147 188
e 147 201
e 147 227
e 147 239
e 147 256
e 148 149
e 148 150
e 148 151
e 148 152
e 148 189
e 148 214
e 149 150
e 149 151
e 149 152
e 149 162
e 149 190
e 149 258
e 150 151
e 150 152
e 150 177
e 150 203
e 150 229
e 150 241
e 150 259
e 151 152
e 151 163
e 151 178
e 151 191
e 151 215
e 151 242
e 152 164
e 152 192
e 152 204
e 152 216
e 152 230
e 152 243
e 153 154
e 153 155
e 153 156
e 153 157
e 153 158
e 153 159
e 153 160
e 153 161
e 153 162
e 153 163
e 153 164
e 153 166
e 153 180
e 153 194
e 153 205
e 153 232
e 153 245
e 154 155
e 154 156
e 154 157
e 154 158
e 154 159
e 154 160
e 154 161
e 154 162
e 154 163
e 154 164
e 154 167
e 154 195
e 154 206
e 154 218
e 154 246
e 155 156
e 155 157
e 155 158
e 155 159
e 155 160
e 155 161
e 155 162
e 155 163
e 155 164
e 155 168
e 155 181
e 155 207
e 155 219
e 155 233
e 155 247
e 156 157
e 156 158
e 156 159
e 156 160
e 156 161
e 156 162
e 156 163
e 156 164
e 156 183
e 156 196
e 156 221
e 156 249
e 157 158
e 157 159
e 157 160
e 157 161
e 157 162
e 157 163
e 157 164
e 157 169
e 157 210
e 157 222
e 157 235
e 157 251
e 158 159
e 158 160
e 158 161
e 158 162
e 158 163
e 158 164
e 158 170
e 158 184
e 158 198
e 158 223
e 158 236
e 158 252
e 159 160
e 159 161
e 159 162
e 159 163
e 159 164
e 159 173
e 159 199
e 159 211
e 159 226
e 159 238
e 159 254
e 160 161
e 160 162
e 160 163
e 160 164
e 160 174
e 160 187
e 160 200
e 160 212
e 160 255
e 161 162
e 161 163
e 161 164
e 161 176
e 161 202
e 161 213
e 161 228
e 161 240
e 161 257
e 162 163
e 162 164
e 162 190
e 162 258
e 163 164
e 163 178
e 163 191
e 163 215
e 163 242
e 164 192
e 164 204
e 164 216
e 164 230
e 164 243
e 165 166
e 165 167
e 165 168
e 165 169
e 165 170
e 165 171
e 165 172
e 165 173
e 165 174
e 165 175
e 165 176
e 165 177
e 165 178
e 165 179
e 165 193
e 165 217
e 165 231
e 165 244
e 166 167
e 166 168
e 166 169
e 166 170
e 166 171
e 166 172
e 166 173
e 166 174
e 166 175
e 166 176
e 166 177
e 166 178
e 166 180
e 166 194
e 166 205
e 166 232
e 166 245
e 167 168
e 167 169
e 167 170
e 167 171
e 167 172
e 167 173
e 167 174
e 167 175
e 167 176
e 167 177
e 167 178
e 167 195
e 167 206
e 167 218
e 167 246
e 168 169
e 168 170
e 168 171
e 168 172
e 168 173
e 168 174
e 168 175
e 168 176
e 168 177
e 168 178
e 168 181
e 168 207
e 168 219
e 168 233
e 168 247
e 169 170
e 169 171
e 169 172
e 169 173
e 169 174
e 169 175
e 169 176
e 169 177
e 169 178
e 169 210
e 169 222
e 169 235
e 169 251
e 170 171
e 170 172
e 170 173
e 170 174
e 170 175
e 170 176
e 170 177
e 170 178
e 170 184
e 170 198
e 170 223
e 170 236
e 170 252
e 171 172
e 171 173
e 171 174
e 171 175
e 171 176
e 171 177
e 171 178
e 171 185
e 171 225
e 172 173
e 172 174
e 172 175
e 172 176
e 172 177
e 172 178
e 172 186
e 172 237
e 173 174
e 173 175
e 173 176
e 173 177
e 173 178
e 173 199
e 173 211
e 173 226
e 173 238
e 173 254
e 174 175
e 174 176
e 174 177
e 174 178
e 174 187
e 174 200
e 174 212
e 174 255
e 175 176
e 175 177
e 175 178
e 175 188
e 175 201
e 175 227
e 175 239
e 175 256
e 176 177
e 176 178
e 176 202
e 176 213
e 176 228
e 176 240
e 176 257
e 177 178
e 177 203
e 177 229
e 177 241
e 177 259
e 178 191
e 178 215
e 178 242
e 179 180
e 179 181
e 179 182
e 179 183
e 179 184
e 179 185
e 179 186
e 179 187
e 179 188
e 179 189
e 179 190
e 179 191
e 179 192
e 179 193
e 179 217
e 179 231
e 179 244
e 180 181
e 180 182
e 180 183
e 180 184
e 180 185
e 180 186
e 180 187
e 180 188
e 180 189
e 180 190
e 180 191
e 180 192
e 180 194
e 180 205
e 180 232
e 180 245
e 181 182
e 181 183
e 181 184
e 181 185
e 181 186
e 181 187
e 181 188
e 181 189
e 181 190
e 181 191
e 181 192
e 181 207
e 181 219
e 181 233
e 181 247
e 182 183
e 182 184
e 182 185
e 182 186
e 182 187
e 182 188
e 182 189
e 182 190
e 182 191
e 182 192
e 182 208
e 182 220
e 182 234
e 182 248
e 183 184
e 183 185
e 183 186
e 183 187
e 183 188
e 183 189
e 183 190
e 183 191
e 183 192
e 183 196
e 183 221
e 183 249
e 184 185
e 184 186
e 184 187
e 184 188
e 184 189
e 184 190
e 184 191
e 184 192
e 184 198
e 184 223
e 184 236
e 184 252
e 185 186
e 185 187
e 185 188
e 185 189
e 185 190
e 185 191
e 185 192
e 185 225
e 186 187
e 186 188
e 186 189
e 186 190
e 186 191
e 186 192
e 186 237
e 187 188
e 187 189
e 187 190
e 187 191
e 187 192
e 187 200
e 187 212
e 187 255
e 188 189
e 188 190
e 188 191
e 188 192
e 188 201
e 188 227
e 188 239
e 188 256
e 189 190
e 189 191
e 189 192
e 189 214
e 190 191
e 190 192
e 190 258
e 191 192
e 191 215
e 191 242
e 192 204
e 192 216
e 192 230
e 192 243
e 193 194
e 193 195
e 193 196
e 193 197
e 193 198
e 193 199
e 193 200
e 193 201
e 193 202
e 193 203
e 193 204
e 193 217
e 193 231
e 193 244
e 194 195
e 194 196
e 194 197
e 194 198
e 194 199
e 194 200
e 194 201
e 194 202
e 194 203
e 194 204
e 194 205
e 194 232
e 194 245
e 195 196
e 195 197
e 195 198
e 195 199
e 195 200
e 195 201
e 195 202
e 195 203
e 195 204
e 195 206
e 195 218
e 195 246
e 196 197
e 196 198
e 196 199
e 196 200
e 196 201
e 196 202
e 196 203
e 196 204
e 196 221
e 196 249
e 197 198
e 197 199
e 197 200
e 197 201
e 197 202
e 197 203
e 197 204
e 197 209
e 197 250
e 198 199
e 198 200
e 198 201
e 198 202
e 198 203
e 198 204
e 198 223
e 198 236
e 198 252
e 199 200
e 199 201
e 199 202
e 199 203
e 199 204
e 199 211
e 199 226
e 199 238
e 199 254
e 200 201
e 200 202
e 200 203
e 200 204
e 200 212
e 200 255
e 201 202
e 201 203
e 201 204
e 201 227
e 201 239
e 201 256
e 202 203
e 202 204
e 202 213
e 202 228
e 202 240
e 202 257
e 203 204
e 203 229
e 203 241
e 203 259
e 204 216
e 204 230
e 204 243
e 205 206
e 205 207
e 205 208
e 205 209
e 205 210
e 205 211
e 205 212
e 205 213
e 205 214
e 205 215
e 205 216
e 205 232
e 205 245
e 206 207
e 206 208
e 206 209
e 206 210
e 206 211
e 206 212
e 206 213
e 206 214
e 206 215
e 206 216
e 206 218
e 206 246
e 207 208
e 207 209
e 207 210
e 207 211
e 207 212
e 207 213
e 207 214
e 207 215
e 207 216
e 207 219
e 207 233
e 207 247
e 208 209
e 208 210
e 208 211
e 208 212
e 208 213
e 208 214
e 208 215
e 208 216
e 208 220
e 208 234
e 208 248
e 209 210
e 209 211
e 209 212
e 209 213
e 209 214
e 209 215
e 209 216
e 209 250
e 210 211
e 210 212
e 210 213
e 210 214
e 210 215
e 210 216
e 210 222
e 210 235
e 210 251
e 211 212
e 211 213
e 211 214
e 211 215
e 211 216
e 211 226
e 211 238
e 211 254
e 212 213
e 212 214
e 212 215
e 212 216
e 212 255
e 213 214
e 213 215
e 213 216
e 213 228
e 213 240
e 213 257
e 214 215
e 214 216
e 215 216
e 215 242
e 216 230
e 216 243
e 217 218
e 217 219
e 217 220
e 217 221
e 217 222
e 217 223
e 217 224
e 217 225
e 217 226
e 217 227
e 217 228
e 217 229
e 217 230
e 217 231
e 217 244
e 218 219
e 218 220
e 218 221
e 218 222
e 218 223
e 218 224
e 218 225
e 218 226
e 218 227
e 218 228
e 218 229
e 218 230
e 218 246
e 219 220
e 219 221
e 219 222
e 219 223
e 219 224
e 219 225
e 219 226
e 219 227
e 219 228
e 219 229
e 219 230
e 219 233
e 219 247
e 220 221
e 220 222
e 220 223
e 220 224
e 220 225
e 220 226
e 220 227
e 220 228
e 220 229
e 220 230
e 220 234
e 220 248
e 221 222
e 221 223
e 221 224
e 221 225
e 221 226
e 221 227
e 221 228
e 221 229
e 221 230
e 221 249
e 222 223
e 222 224
e 222 225
e 222 226
e 222 227
e 222 228
e 222 229
e 222 230
e 222 235
e 222 251
e 223 224
e 223 225
e 223 226
e 223 227
e 223 228
e 223 229
e 223 230
e 223 236
e 223 252
e 224 225
e 224 226
e 224 227
e 224 228
e 224 229
e 224 230
e 224 253
e 225 226
e 225 227
e 225 228
e 225 229
e 225 230
e 226 227
e 226 228
e 226 229
e 226 230
e 226 238
e 226 254
e 227 228
e 227 229
e 227 230
e 227 239
e 227 256
e 228 229
e 228 230
e 228 240
e 228 257
e 229 230
e 229 241
e 229 259
e 230 243
e 231 232
e 231 233
e 231 234
e 231 235
e 231 236
e 231 237
e 231 238
e 231 239
e 231 240
e 231 241
e 231 242
e 231 243
e 231 244
e 232 233
e 232 234
e 232 235
e 232 236
e 232 237
e 232 238
e 232 239
e 232 240
e 232 241
e 232 242
e 232 243
e 232 245
e 233 234
e 233 235
e 233 236
e 233 237
e 233 238
e 233 239
e 233 240
e 233 241
e 233 242
e 233 243
e 233 247
e 234 235
e 234 236
e 234 237
e 234 238
e 234 239
e 234 240
e 234 241
e 234 242
e 234 243
e 234 248
e 235 236
e 235 237
e 235 238
e 235 239
e 235 240
e 235 241
e 235 242
e 235 243
e 235 251
e 236 237
e 236 238
e 236 239
e 236 240
e 236 241
e 236 242
e 236 243
e 236 252
e 237 238
e 237 239
e 237 240
e 237 241
e 237 242
e 237 243
e 238 239
e 238 240
e 238 241
e 238 242
e 238 243
e 238 254
e 239 240
e 239 241
e 239 242
e 239 243
e 239 256
e 240 241
e 240 242
e 240 243
e 240 257
e 241 242
e 241 243
e 241 259
e 242 243
e 244 245
e 244 246
e 244 247
e 244 248
e 244 249
e 244 250
e 244 251
e 244 252
e 244 253
e 244 254
e 244 255
e 244 256
e 244 257
e 244 258
e 244 259
e 245 246
e 245 247
e 245 248
e 245 249
e 245 250
e 245 251
e 245 252
e 245 253
e 245 254
e 245 255
e 245 256
e 245 257
e 245 258
e 245 259
e 246 247
e 246 248
e 246 249
e 246 250
e 246 251
e 246 252
e 246 253
e 246 254
e 246 255
e 246 256
e 246 257
e 246 258
e 246 259
e 247 248
e 247 249
e 247 250
e 247 251
e 247 252
e 247 253
e 247 254
e 247 255
e 247 256
e 247 257
e 247 258
e 247 259
e 248 249
e 248 250
e 248 251
e 248 252
e 248 253
e 248 254
e 248 255
e 248 256
e 248 257
e 248 258
e 248 259
e 249 250
e 249 251
e 249 252
e 249 253
e 249 254
e 249 255
e 249 256
e 249 257
e 249 258
e 249 259
e 250 251
e 250 252
e 250 253
e 250 254
e 250 255
e 250 256
e 250 257
e 250 258
e 250 259
e 251 252
e 251 253
e 251 254
e 251 255
e 251 256
e 251 257
e 251 258
e 251 259
e 252 253
e 252 254
e 252 255
e 252 256
e 252 257
e 252 258
e 252 259
e 253 254
e 253 255
e 253 256
e 253 257
e 253 258
e 253 259
e 254 255
e 254 256
e 254 257
e 254 258
e 254 259
e 255 256
e 255 257
e 255 258
e 255 259
e 256 257
e 256 258
e 256 259
e 257 258
e 257 259
e 258 259
